NAME 
ROWS
 N  OBJ
 L  R0      
 L  R1      
 L  R2      
 E  R3      
 E  R4      
 E  R5      
 E  R6      
 E  R7      
 E  R8      
 E  R9      
 E  R10     
 E  R11     
 E  R12     
COLUMNS
    MARKER    'MARKER'                 'INTORG'
    I0(6)     OBJ       59
    I0(6)     R0        95
    I0(6)     R1        -122
    I0(6)     R2        -116
    I0(6)     R4        18
    I0(6)     R6        6
    I0(6)     R12       1
    I1(6)     OBJ       105
    I1(6)     R0        -144
    I1(6)     R1        -174
    I1(6)     R2        -128
    I1(6)     R3        8
    I1(6)     R4        8
    I1(6)     R12       1
    I2(5)     OBJ       -27
    I2(5)     R0        5
    I2(5)     R1        117
    I2(5)     R2        -135
    I2(5)     R5        8
    I2(5)     R12       1
    I3(7)     OBJ       168
    I3(7)     R0        113
    I3(7)     R1        -134
    I3(7)     R2        -117
    I3(7)     R4        6
    I3(7)     R5        18
    I3(7)     R6        2
    I3(7)     R12       1
    MARKER    'MARKER'                 'INTEND'
    C4(8)     OBJ       1
    C4(8)     R0        -4
    C4(8)     R1        4
    C4(8)     R2        7
    C4(8)     R3        7
    C4(8)     R4        10
    C4(8)     R5        6
    C4(8)     R6        15
    C4(8)     R9        11
    C5(7)     OBJ       -7
    C5(7)     R0        -5
    C5(7)     R1        -3
    C5(7)     R2        -9
    C5(7)     R4        12
    C5(7)     R5        10
    C5(7)     R9        19
    C5(7)     R10       16
    C6(8)     OBJ       8
    C6(8)     R0        -5
    C6(8)     R1        9
    C6(8)     R2        4
    C6(8)     R5        2
    C6(8)     R7        17
    C6(8)     R8        7
    C6(8)     R9        19
    C6(8)     R10       10
    C7(7)     OBJ       -2
    C7(7)     R0        8
    C7(7)     R1        -9
    C7(7)     R2        -10
    C7(7)     R3        15
    C7(7)     R5        15
    C7(7)     R8        8
    C7(7)     R10       19
    C8(8)     OBJ       -10
    C8(8)     R0        -3
    C8(8)     R1        3
    C8(8)     R2        -7
    C8(8)     R3        11
    C8(8)     R5        4
    C8(8)     R7        11
    C8(8)     R8        4
    C8(8)     R9        3
    C9(8)     OBJ       2
    C9(8)     R0        -2
    C9(8)     R1        -3
    C9(8)     R2        -3
    C9(8)     R4        9
    C9(8)     R6        1
    C9(8)     R7        9
    C9(8)     R9        10
    C9(8)     R10       19
    C10(1)    R3        1
    C11(1)    R4        1
    C12(1)    R5        1
    C13(1)    R6        1
    C14(1)    R7        1
    C15(1)    R8        1
    C16(1)    R9        1
    C17(1)    R10       1
    C18(1)    R11       1
    C19(1)    R12       1
RHS
    RHS1      R0        -2.9995215311004785e+01
    RHS1      R1        1.2742105263157895e+02
    RHS1      R2        -2.0846411483253590e+02
    RHS1      R3        72
    RHS1      R4        61
    RHS1      R5        82
    RHS1      R6        56
    RHS1      R7        84
    RHS1      R8        87
    RHS1      R9        78
    RHS1      R10       84
    RHS1      R11       52
    RHS1      R12       1
BOUNDS
 UP BND1      I0(6)     2
 UP BND1      I1(6)     2
 UP BND1      I2(5)     2
 UP BND1      I3(7)     2
ENDATA
